START_NODE
465, 302
DELIVERY_NODES
405, 385
287, 287
415, 209
401, 278
424, 239
308, 283
322, 358
347, 342
316, 356
452, 318
403, 409
468, 271
236, 243
437, 337
380, 239
401, 322
414, 301
354, 241
422, 243
269, 269
429, 272
406, 163
429, 286
463, 350
305, 338
378, 325
444, 297
306, 344
292, 360
351, 257
400, 406
400, 265
294, 318
323, 352
432, 327
310, 238
367, 427
399, 319
423, 298
259, 280
432, 374
437, 354
377, 383
275, 385
292, 343
367, 380
389, 251
294, 390
419, 390
395, 336